01-01-2018
26-01-2018
14-02-2018
19-02-2018
20-02-2018
21-02-2018
22-02-2018
23-02-2018
26-02-2018
27-02-2018
28-02-2018
01-03-2018
02-03-2018
29-03-2018
30-03-2018
23-04-2018
24-04-2018
25-04-2018
26-04-2018
27-04-2018
30-04-2018
01-05-2018
02-05-2018
03-05-2018
04-05-2018
05-05-2018
06-05-2018
07-05-2018
08-05-2018
09-05-2018
10-05-2018
11-05-2018
12-05-2018
13-05-2018
14-05-2018
15-05-2018
16-05-2018
17-05-2018
18-05-2018
19-05-2018
20-05-2018
21-05-2018
22-05-2018
23-05-2018
24-05-2018
25-05-2018
26-05-2018
27-05-2018
28-05-2018
29-05-2018
30-05-2018
31-05-2018
01-06-2018
02-06-2018
03-06-2018
04-06-2018
05-06-2018
06-06-2018
07-06-2018
08-06-2018
09-06-2018
10-06-2018
11-06-2018
12-06-2018
13-06-2018
14-06-2018
15-06-2018
16-06-2018
17-06-2018
18-06-2018
19-06-2018
20-06-2018
21-06-2018
22-06-2018
23-06-2018
24-06-2018
25-06-2018
26-06-2018
27-06-2018
28-06-2018
29-06-2018
30-06-2018
01-07-2018
02-07-2018
03-07-2018
04-07-2018
05-07-2018
06-07-2018
07-07-2018
08-07-2018
09-07-2018
10-07-2018
11-07-2018
12-07-2018
13-07-2018
14-07-2018
15-07-2018
16-07-2018
17-07-2018
18-07-2018
19-07-2018
20-07-2018
